; Automatically generated by map2smt

(set-logic HORN)




(declare-fun new4 (Int Bool) Bool)
(declare-fun new3 (Int Int Bool) Bool)
(declare-fun new2 (Int Bool) Bool)
(declare-fun new1 (Int Bool Int Int Bool) Bool)
(declare-fun ff () Bool)

(assert
  (forall ( (A Int) (B Bool) )
    (=>
      (= B false)
      (new4 A B)
    )
  )
)
(assert
  (forall ( (A Int) (B Bool) )
    (=>
      (= B true)
      (new4 A B)
    )
  )
)
(assert
  (forall ( (A Int) (B Bool) )
    (=>
      (and
        (= B true)
        (new4 A B)
      )
      (new4 A B)
    )
  )
)
(assert
  (forall ( (A Int) (B Bool) (C Int) )
    (=>
      (and
        (= B false)
        (>= (- C A) 1)
        (new4 A B)
      )
      (new4 A B)
    )
  )
)
(assert
  (forall ( (A Int) (B Bool) (C Int) )
    (=>
      (and
        (= B false)
        (<= (- C A) (- 1))
        (new4 A B)
      )
      (new4 A B)
    )
  )
)
(assert
  (forall ( (A Int) (B Int) (C Bool) )
    (=>
      (and
        (= C false)
        (>= A 0)
      )
      (new3 A B C)
    )
  )
)
(assert
  (forall ( (A Int) (B Int) (C Bool) )
    (=>
      (and
        (>= A 0)
        (= A 0)
        (new2 B C)
      )
      (new3 A B C)
    )
  )
)
(assert
  (forall ( (A Int) (B Int) (C Bool) (D Int) )
    (=>
      (and
        (>= D 0)
        (>= A 0)
        (= A (+ 1 D))
        (new3 D B C)
      )
      (new3 A B C)
    )
  )
)
(assert
  (forall ( (A Int) (B Bool) )
    (=>
      (= B false)
      (new2 A B)
    )
  )
)
(assert
  (forall ( (A Int) (B Bool) )
    (=>
      (= B true)
      (new2 A B)
    )
  )
)
(assert
  (forall ( (A Int) (B Bool) )
    (=>
      (and
        (= B true)
        (new2 A B)
      )
      (new2 A B)
    )
  )
)
(assert
  (forall ( (A Int) (B Bool) (C Int) )
    (=>
      (and
        (= B false)
        (>= (- C A) 1)
        (new2 A B)
      )
      (new2 A B)
    )
  )
)
(assert
  (forall ( (A Int) (B Bool) (C Int) )
    (=>
      (and
        (= B false)
        (<= (- C A) (- 1))
        (new2 A B)
      )
      (new2 A B)
    )
  )
)
(assert
  (forall ( (A Int) (B Bool) (C Int) (D Bool) )
    (=>
      (and
        (= D false)
        (= B false)
        (>= C 0)
      )
      (new1 A B C A D)
    )
  )
)
(assert
  (forall ( (A Int) (B Bool) (C Int) (D Bool) )
    (=>
      (and
        (= D false)
        (= B false)
        (>= C 0)
        (= C 0)
      )
      (new1 A B C A D)
    )
  )
)
(assert
  (forall ( (A Int) (B Bool) (C Int) (D Bool) )
    (=>
      (and
        (= D true)
        (= B true)
        (>= C 0)
        (= C 0)
      )
      (new1 A B C A D)
    )
  )
)
(assert
  (forall ( (A Int) (B Bool) (C Int) (D Bool) )
    (=>
      (and
        (= D true)
        (= B true)
        (>= C 0)
        (= C 0)
        (new2 A D)
      )
      (new1 A B C A D)
    )
  )
)
(assert
  (forall ( (A Int) (B Bool) (C Int) (D Bool) (E Int) )
    (=>
      (and
        (= B true)
        (>= E 0)
        (>= C 0)
        (= C (+ 1 E))
        (new3 E A D)
      )
      (new1 A B C A D)
    )
  )
)
(assert
  (forall ( (A Int) (B Bool) (C Int) (D Bool) )
    (=>
      (and
        (= D true)
        (= B true)
        (>= C 0)
        (= C 0)
        (new4 A B)
      )
      (new1 A B C A D)
    )
  )
)
(assert
  (forall ( (A Int) (B Bool) (C Int) )
    (=>
      (and
        (= B true)
        (= B true)
        (>= C 0)
        (= C 0)
        (new4 A B)
      )
      (new1 A B C A B)
    )
  )
)
(assert
  (forall ( (A Int) (B Bool) (C Int) (D Bool) (E Int) )
    (=>
      (and
        (= B true)
        (>= E 0)
        (>= C 0)
        (= C (+ 1 E))
        (new1 A B E A D)
      )
      (new1 A B C A D)
    )
  )
)
(assert
  (forall ( (A Int) (B Bool) (C Int) (D Int) )
    (=>
      (and
        (= B false)
        (= B false)
        (>= (- D A) 1)
        (>= (- D A) 1)
        (>= C 0)
        (= C 0)
        (new4 A B)
      )
      (new1 A B C A B)
    )
  )
)
(assert
  (forall ( (A Int) (B Bool) (C Int) (D Bool) (E Int) (F Int) )
    (=>
      (and
        (= B false)
        (>= (- E A) 1)
        (>= F 0)
        (>= C 0)
        (= C (+ 1 F))
        (new1 A B F A D)
      )
      (new1 A B C A D)
    )
  )
)
(assert
  (forall ( (A Int) (B Bool) (C Int) (D Int) )
    (=>
      (and
        (= B false)
        (= B false)
        (>= C 0)
        (<= (- D A) (- 1))
        (<= (- D A) (- 1))
        (= C 0)
        (new4 A B)
      )
      (new1 A B C A B)
    )
  )
)
(assert
  (forall ( (A Int) (B Bool) (C Int) (D Bool) (E Int) (F Int) )
    (=>
      (and
        (= B false)
        (>= E 0)
        (>= C 0)
        (<= (- F A) (- 1))
        (= C (+ 1 E))
        (new1 A B E A D)
      )
      (new1 A B C A D)
    )
  )
)
(assert
  (forall ( (A Bool) (B Bool) (C Int) (D Int) )
    (=>
      (and
        (= A true)
        (= B false)
        (>= C 0)
        (new1 D B C D A)
      )
      ff
    )
  )
)

(assert (not ff))
(check-sat)
